RT is False
Default write of storage_offers_DA.csv just to have a file (but constraint should be inactive)
Reading model...
...model read.
creating competitive generators file...
...competitive generators recorded.
Loading data...
.. day-ahead data with real-time VRE data read.
Compiling instance...
0
0.0
0
0.0
...instance created.
Creating Offer Mitigation (model will solve as dispatch if TRUE)...
...storage offer mitigation file created
Solving...

Welcome to IBM(R) ILOG(R) CPLEX(R) Interactive Optimizer 12.9.0.0
  with Simplex, Mixed Integer & Barrier Optimizers
5725-A06 5725-A29 5724-Y48 5724-Y49 5724-Y54 5724-Y55 5655-Y21
Copyright IBM Corp. 1988, 2019.  All Rights Reserved.

Type 'help' for a list of available commands.
Type 'help' followed by a command name for more
information on commands.

CPLEX> Logfile 'cplex.log' closed.
Logfile 'C:\Users\llavin\Desktop\test826\logs\tmpt7lp3p5f.cplex.log' open.
CPLEX> New value for parallel optimization mode: -1
CPLEX> New value for mixed integer optimality gap tolerance: 0.05
CPLEX> New value for emphasis for MIP optimization: 1
CPLEX> New value for integrality tolerance: 1e-10
CPLEX> New value for deterministic time limit in ticks: 50000
CPLEX> Problem 'C:\Users\llavin\Desktop\test826\logs\tmppjb59bsk.pyomo.lp' read.
Read time = 0.05 sec. (3.04 ticks)
CPLEX> Problem name         : C:\Users\llavin\Desktop\test826\logs\tmppjb59bsk.pyomo.lp
Objective sense      : Minimize
Variables            :   26081  [Nneg: 1,  Box: 21616,  Free: 4464]
Objective nonzeros   :    2496
Linear constraints   :   27515  [Less: 14006,  Greater: 4416,  Equal: 9093]
  Nonzeros           :   89219
  RHS nonzeros       :   12271

Variables            : Min LB: -5000.000        Max UB: 1000000.       
Objective nonzeros   : Min   : 15.73158         Max   : 124.0997       
Linear constraints   :
  Nonzeros           : Min   : 0.8500000        Max   : 3000.000       
  RHS nonzeros       : Min   : 0.07500000       Max   : 5000.000       
CPLEX> CPXPARAM_Parallel                                -1
CPXPARAM_Emphasis_MIP                            1
CPXPARAM_DetTimeLimit                            50000
CPXPARAM_MIP_Tolerances_MIPGap                   0.050000000000000003
CPXPARAM_MIP_Tolerances_Integrality              1e-10
Parallel mode: opportunistic, using up to 32 threads for concurrent optimization.
Tried aggregator 1 time.
LP Presolve eliminated 21377 rows and 15511 columns.
Aggregator did 775 substitutions.
Reduced LP has 5363 rows, 9795 columns, and 31682 nonzeros.
Presolve time = 0.08 sec. (30.36 ticks)
Symmetry aggregator did 5563 additional substitutions.
Initializing dual steep norms . . .

Iteration log . . .
Iteration:     1   Dual objective     =             0.000000
Perturbation started.
Iteration:   101   Dual objective     =             0.000000
Iteration:   352   Dual objective     =            48.067678
Iteration:   565   Dual objective     =            60.015384
Iteration:   783   Dual objective     =            60.724734
Iteration:   964   Dual objective     =        271817.228632
Iteration:  1132   Dual objective     =        274961.483853
Removing perturbation.

Dual crossover.
  Dual:  Fixing 1 variable.
        0 DMoves:  Infeasibility  9.94759830e-14  Objective  2.74949028e+05
  Dual:  Pushed 0, exchanged 1.
  Primal:  Fixing 10 variables.
        9 PMoves:  Infeasibility  3.00497405e-09  Objective  2.74949028e+05
        0 PMoves:  Infeasibility  3.00497405e-09  Objective  2.74949028e+05
  Primal:  Pushed 10, exchanged 0.

Dual simplex solved model.


Dual simplex - Optimal:  Objective =  2.7494902792e+05
Solution time =    0.20 sec.  Iterations = 1387 (0)
Deterministic time = 79.34 ticks  (390.82 ticks/sec)

CPLEX> Solution written to file 'C:\Users\llavin\Desktop\test826\logs\tmpxl3i1fqj.cplex.sol'.
CPLEX> Exporting results... 
